1 1 -2 0
1 1 -3 0
1 -1 -4 0
1 1 -5 0
1 1 -6 0
1 -2 -3 0
1 -2 -1 0
1 -2 -5 0
1 -2 -6 0
1 -7 -8 0
1 -7 9 0
1 7 -4 0
1 -7 -10 0
1 -7 11 0
1 7 -5 0
1 -7 -6 0
1 9 -8 0
1 9 3 0
1 -9 11 0
1 9 7 0
1 -9 -6 0
1 -4 -12 0
1 -4 13 0
1 -4 -14 0
1 -4 9 0
1 4 2 0
1 -4 15 0
1 4 16 0
1 -4 17 0
1 4 7 0
1 -4 -6 0
1 -6 13 0
1 6 -14 0
1 -6 9 0
1 -6 2 0
1 -6 -4 0
1 6 16 0
1 -6 18 0
1 -6 17 0
1 6 -7 0
1 -6 1 0
1 -3 12 0
1 3 -19 0
1 -3 -9 0
1 3 -2 0
1 3 20 0
1 -3 16 0
1 3 21 0
1 3 7 0
1 -3 -1 0
1 -5 12 0
1 5 19 0
1 -5 -2 0
1 -5 3 0
1 -5 21 0
1 5 -22 0
1 -5 -7 0
1 -5 -23 0
1 -17 8 0
1 -17 24 0
1 -17 14 0
1 17 -4 0
1 17 10 0
1 -17 11 0
1 -17 22 0
1 14 8 0
1 -14 -24 0
1 14 -19 0
1 14 4 0
1 14 10 0
1 -14 -11 0
1 14 -17 0
1 -14 -6 0
1 -18 8 0
1 18 -24 0
1 18 -13 0
1 -18 25 0
1 18 -26 0
1 -18 -4 0
1 18 -10 0
1 -18 11 0
1 -18 27 0
1 18 -21 0
1 18 28 0
1 18 -6 0
1 -13 -8 0
1 13 -24 0
1 -13 25 0
1 13 -26 0
1 -13 10 0
1 -13 11 0
1 13 -27 0
1 -13 -28 0
1 -13 6 0
1 -11 29 0
1 -11 -30 0
1 11 -24 0
1 -11 13 0
1 -11 -14 0
1 -11 -31 0
1 11 32 0
1 -11 18 0
1 -11 -17 0
1 -11 -7 0
1 -11 -33 0
1 24 29 0
1 24 30 0
1 -24 13 0
1 24 14 0
1 -24 9 0
1 -24 34 0
1 -24 -31 0
1 24 32 0
1 -24 -11 0
1 24 18 0
1 24 -17 0
1 -24 -7 0
1 -24 -33 0
1 -10 8 0
1 10 -35 0
1 -10 12 0
1 -10 -13 0
1 10 -14 0
1 -10 -9 0
1 10 -34 0
1 -10 -36 0
1 -10 18 0
1 10 17 0
1 -10 7 0
1 10 -33 0
1 8 -12 0
1 8 13 0
1 -8 -9 0
1 8 34 0
1 -8 10 0
1 8 36 0
1 8 -16 0
1 -8 -17 0
1 8 7 0
1 32 30 0
1 32 -25 0
1 32 26 0
1 -32 -11 0
1 32 -16 0
1 32 28 0
1 -30 -12 0
1 30 25 0
1 -30 -26 0
1 30 -32 0
1 -30 11 0
1 30 -27 0
1 31 -29 0
1 -31 24 0
1 31 26 0
1 -31 36 0
1 31 11 0
1 31 -28 0
1 29 35 0
1 -29 -24 0
1 -29 -26 0
1 29 -31 0
1 -29 27 0
1 -29 28 0
1 -28 29 0
1 28 -30 0
1 -28 -26 0
1 -28 18 0
1 26 30 0
1 26 -13 0
1 26 -31 0
1 -26 32 0
1 26 28 0
1 -27 -29 0
1 27 -30 0
1 -27 -13 0
1 27 -25 0
1 -27 -34 0
1 27 -32 0
1 -27 -37 0
1 27 -33 0
1 25 -29 0
1 25 13 0
1 25 -38 0
1 -25 34 0
1 25 -31 0
1 -25 -18 0
1 -25 -37 0
1 25 -33 0
1 22 -39 0
1 22 19 0
1 22 40 0
1 22 3 0
1 22 -41 0
1 22 -42 0
1 19 -39 0
1 19 3 0
1 19 42 0
1 -19 -22 0
1 -19 -5 0
1 21 43 0
1 21 39 0
1 -21 40 0
1 21 44 0
1 -21 -45 0
1 21 3 0
1 -21 -41 0
1 21 -18 0
1 21 42 0
1 21 -46 0
1 21 47 0
1 21 -5 0
1 43 42 0
1 -43 -13 0
1 -43 -39 0
1 -43 -40 0
1 -43 -44 0
1 -43 -45 0
1 -43 -41 0
1 43 -21 0
1 -43 46 0
1 43 -47 0
1 43 -5 0
1 -40 -42 0
1 -40 -35 0
1 40 12 0
1 40 -43 0
1 40 19 0
1 -40 36 0
1 40 16 0
1 -40 21 0
1 -40 22 0
1 -42 35 0
1 -42 -43 0
1 -42 -19 0
1 -42 -40 0
1 -42 -36 0
1 -42 16 0
1 -42 21 0
1 42 -22 0
1 -39 43 0
1 -39 -19 0
1 -39 -21 0
1 39 22 0
1 -41 39 0
1 41 -19 0
1 -41 21 0
1 41 -22 0
1 -16 -8 0
1 -16 12 0
1 16 40 0
1 16 -45 0
1 16 -3 0
1 16 4 0
1 -16 32 0
1 -16 -42 0
1 -16 46 0
1 16 47 0
1 -16 -5 0
1 16 6 0
1 -12 -8 0
1 12 -30 0
1 12 -40 0
1 -12 -44 0
1 -12 45 0
1 12 3 0
1 -12 -4 0
1 12 -16 0
1 12 42 0
1 -12 46 0
1 -12 -47 0
1 -12 -5 0
1 12 -6 0
1 -36 -48 0
1 -36 8 0
1 -36 35 0
1 36 40 0
1 -36 44 0
1 36 45 0
1 36 20 0
1 -36 -15 0
1 -36 31 0
1 36 -42 0
1 36 46 0
1 36 23 0
1 -35 48 0
1 35 29 0
1 35 8 0
1 -35 44 0
1 35 -45 0
1 35 -20 0
1 35 10 0
1 -35 36 0
1 -35 -42 0
1 35 -46 0
1 35 47 0
1 -35 23 0
1 45 35 0
1 45 -43 0
1 45 38 0
1 45 -34 0
1 -45 -36 0
1 45 -16 0
1 -45 -37 0
1 45 33 0
1 -47 -35 0
1 -47 43 0
1 47 45 0
1 -47 34 0
1 47 36 0
1 47 16 0
1 -47 21 0
1 47 33 0
1 44 35 0
1 44 43 0
1 44 36 0
1 44 -16 0
1 44 21 0
1 -44 46 0
1 -46 -35 0
1 46 -43 0
1 -46 44 0
1 46 -16 0
1 -46 21 0
1 34 48 0
1 34 -24 0
1 34 -45 0
1 34 20 0
1 34 -15 0
1 -34 11 0
1 -34 27 0
1 -34 47 0
1 -34 23 0
1 -34 33 0
1 33 8 0
1 33 -48 0
1 33 -24 0
1 33 25 0
1 -33 -45 0
1 -33 -20 0
1 33 15 0
1 33 -10 0
1 -33 11 0
1 33 27 0
1 33 -47 0
1 38 -48 0
1 -38 45 0
1 38 15 0
1 38 27 0
1 38 47 0
1 -38 37 0
1 -38 -23 0
1 37 -48 0
1 37 25 0
1 -37 -38 0
1 37 15 0
1 37 27 0
1 37 23 0
1 15 48 0
1 15 35 0
1 -15 -38 0
1 -15 34 0
1 15 36 0
1 15 -37 0
1 15 -33 0
1 48 35 0
1 -48 38 0
1 -48 34 0
1 48 15 0
1 48 -36 0
1 48 6 0
1 48 37 0
1 -48 -33 0
1 -20 35 0
1 -20 -38 0
1 20 -3 0
1 -20 34 0
1 20 36 0
1 -20 37 0
1 20 23 0
1 20 -33 0
1 -23 -38 0
1 -23 -20 0
1 23 34 0
1 23 -36 0
1 -23 -5 0
1 -23 -37 0
1 -23 33 0
